NAME : hk48.19300.tour
COMMENT : Cost = 3981_19300
COMMENT : Found by LKH [Keld Helsgaun] Thu Nov 16 17:27:04 2017
TYPE : TOUR
DIMENSION : 52
TOUR_SECTION
1
19
37
27
44
39
45
46
4
42
52
12
8
34
36
38
41
49
2
48
26
29
32
25
10
40
13
28
22
31
20
11
16
51
43
21
33
30
23
9
3
5
15
50
24
14
6
47
7
18
17
35
-1
EOF
